computational_data/solutions/ER_n40_p035_s2.sol
Optimal - objective value 8.00000000
      4 r_4                         1                       1
     10 r_10                        1                       1
     14 r_14                        1                       1
     29 r_29                        1                       1
     41 b_1                         1                       1
     42 b_2                         1                       1
     52 b_12                        1                       1
     63 b_23                        1                       1
